unknown
(model
; cardinality of BoundSet is 2
(declare-sort BoundSet 0)
; rep: @uc_BoundSet_0
; rep: @uc_BoundSet_1
; cardinality of UnboundSet is 1
(declare-sort UnboundSet 0)
(declare-fun groundTerm_3 () UnboundSet)
(define-fun ReleasesMoreCarbonDioxide ((BOUND_VARIABLE_420 BoundSet)) Bool true)
(define-fun SavesLessCarbonDioxide ((BOUND_VARIABLE_420 BoundSet)) Bool true)
(define-fun CarbonDioxideEmissions ((BOUND_VARIABLE_420 BoundSet)) Bool false)
(define-fun NotEffectiveInReducingEmissions ((BOUND_VARIABLE_420 BoundSet)) Bool false)
)
sat
(model
; cardinality of BoundSet is 1
(declare-sort BoundSet 0)
; rep: @uc_BoundSet_0
; cardinality of UnboundSet is 1
(declare-sort UnboundSet 0)
(declare-fun groundTerm_6 () UnboundSet)
(define-fun ReleasesMoreCarbonDioxide ((BOUND_VARIABLE_456 BoundSet)) Bool true)
(define-fun SavesLessCarbonDioxide ((BOUND_VARIABLE_456 BoundSet)) Bool true)
(define-fun CarbonDioxideEmissions ((BOUND_VARIABLE_456 BoundSet)) Bool true)
(define-fun NotEffectiveInReducingEmissions ((BOUND_VARIABLE_456 BoundSet)) Bool false)
)
